NAME : portcgen-10-50
COMMENT : portcgen N=10, seed=50
TYPE : TSP
DIMENSION : 10
EDGE_WEIGHT_TYPE : EUC_2D
NODE_COORD_SECTION
1 84 36
2 80 71
3 63 66
4 67 61
5 82 73
6 66 62
7 72 79
8 86 21
9 99 90
10 102 63
